presolving:
(round 1, fast)       19929 del vars, 32253 del conss, 0 add conss, 19929 chg bounds, 31907 chg sides, 0 chg coeffs, 0 upgd conss, 0 impls, 12363 clqs
(round 2, fast)       19929 del vars, 52987 del conss, 0 add conss, 19929 chg bounds, 32129 chg sides, 222 chg coeffs, 0 upgd conss, 0 impls, 12363 clqs
   (0.8s) running MILP presolver
   (0.9s) MILP presolver found nothing
(round 3, exhaustive) 19929 del vars, 52987 del conss, 0 add conss, 19929 chg bounds, 32129 chg sides, 222 chg coeffs, 13212 upgd conss, 0 impls, 12363 clqs
   (1.6s) probing: 51/13151 (0.4%) - 0 fixings, 0 aggregations, 0 implications, 0 bound changes
   (1.6s) probing aborted: 50/50 successive totally useless probings
   (1.6s) symmetry computation started: requiring (bin +, int -, cont +), (fixed: bin -, int +, cont -)
   (1.7s) no symmetry present
presolving (4 rounds: 4 fast, 2 medium, 2 exhaustive):
 19929 deleted vars, 52987 deleted constraints, 0 added constraints, 19929 tightened bounds, 0 added holes, 32136 changed sides, 455 changed coefficients
 0 implications, 12363 cliques
presolved problem has 13151 variables (13151 bin, 0 int, 0 impl, 0 cont) and 13212 constraints
    844 constraints of type <knapsack>
  12363 constraints of type <setppc>
      5 constraints of type <logicor>
transformed objective value is always integral (scale: 1)
Presolving Time: 1.44

 time | node  | left  |LP iter|LP it/n|mem/heur|mdpt |vars |cons |rows |cuts |sepa|confs|strbr|  dualbound   | primalbound  |  gap   | compl. 
p 2.3s|     1 |     0 |    26 |     - | vbounds|   0 |  13k|  13k|  13k|   0 |  0 |  35 |   0 | 0.000000e+00 | 1.687300e+04 |    Inf | unknown
  6.4s|     1 |     0 | 10830 |     - |   226M |   0 |  13k|  13k|  13k|   0 |  0 |  46 |   0 | 7.978221e+03 | 1.687300e+04 | 111.49%| unknown
  8.7s|     1 |     0 | 12176 |     - |   230M |   0 |  13k|  13k|  13k|   1 |  1 |  50 |   0 | 8.005234e+03 | 1.687300e+04 | 110.77%| unknown
  9.3s|     1 |     0 | 12718 |     - |   232M |   0 |  13k|  13k|  13k|   2 |  2 |  51 |   0 | 8.011513e+03 | 1.687300e+04 | 110.61%| unknown
  9.7s|     1 |     0 | 13102 |     - |   233M |   0 |  13k|  13k|  13k|   3 |  3 |  51 |   0 | 8.015581e+03 | 1.687300e+04 | 110.50%| unknown
 10.3s|     1 |     0 | 13832 |     - |   235M |   0 |  13k|  13k|  13k|   4 |  4 |  56 |   0 | 8.020558e+03 | 1.687300e+04 | 110.37%| unknown
 11.0s|     1 |     0 | 14597 |     - |   236M |   0 |  13k|  13k|  13k|   5 |  5 |  59 |   0 | 8.026294e+03 | 1.687300e+04 | 110.22%| unknown
L53.5s|     1 |     0 |104047 |     - |    rens|   0 |  13k|  13k|  13k|   5 |  7 |  60 |   0 | 8.026294e+03 | 8.640000e+03 |   7.65%| unknown
 53.6s|     1 |     0 |104047 |     - |   242M |   0 |  13k|  13k|  13k|   5 |  7 |  60 |   0 | 8.026294e+03 | 8.640000e+03 |   7.65%| unknown
 53.7s|     1 |     0 |104047 |     - |   243M |   0 |  13k|  13k|9007 |   5 |  7 |  65 |   0 | 8.026294e+03 | 8.640000e+03 |   7.65%| unknown
 54.1s|     1 |     0 |104367 |     - |   245M |   0 |  13k|9695 |8994 |   6 |  8 |  65 |   0 | 8.036764e+03 | 8.640000e+03 |   7.51%| unknown
 54.1s|     1 |     0 |104367 |     - |   245M |   0 |  13k|9696 |8833 |   6 |  8 |  66 |   0 | 8.036764e+03 | 8.640000e+03 |   7.51%| unknown
 54.2s|     1 |     0 |104367 |     - |   245M |   0 |  13k|2973 |8833 |   6 |  9 |  66 |   0 | 8.036764e+03 | 8.640000e+03 |   7.51%| unknown
(run 1, node 1) restarting after 10269 global fixings of integer variables

(restart) converted 6 cuts from the global cut pool into linear constraints

presolving:
(round 1, fast)       10269 del vars, 23 del conss, 0 add conss, 0 chg bounds, 1 chg sides, 871 chg coeffs, 0 upgd conss, 0 impls, 2744 clqs
   (54.5s) running MILP presolver
   (54.5s) MILP presolver found nothing
(round 2, medium)     10269 del vars, 57 del conss, 32 add conss, 0 chg bounds, 2 chg sides, 873 chg coeffs, 0 upgd conss, 0 impls, 2744 clqs
(round 3, exhaustive) 10269 del vars, 58 del conss, 32 add conss, 0 chg bounds, 2 chg sides, 873 chg coeffs, 6 upgd conss, 0 impls, 2744 clqs
presolving (4 rounds: 4 fast, 3 medium, 2 exhaustive):
 10269 deleted vars, 58 deleted constraints, 32 added constraints, 0 tightened bounds, 0 added holes, 2 changed sides, 873 changed coefficients
 0 implications, 2744 cliques
presolved problem has 2882 variables (2882 bin, 0 int, 0 impl, 0 cont) and 2953 constraints
    188 constraints of type <knapsack>
   2744 constraints of type <setppc>
     21 constraints of type <logicor>
transformed objective value is always integral (scale: 1)
Presolving Time: 1.60
transformed 1/2 original solutions to the transformed problem space

 time | node  | left  |LP iter|LP it/n|mem/heur|mdpt |vars |cons |rows |cuts |sepa|confs|strbr|  dualbound   | primalbound  |  gap   | compl. 
 55.1s|     1 |     0 |107814 |     - |   245M |   0 |2882 |2953 |2933 |   0 |  0 |  66 |   0 | 8.036764e+03 | 8.640000e+03 |   7.51%| unknown
 55.1s|     1 |     0 |107814 |     - |   245M |   0 |2882 |2956 |2928 |   0 |  0 |  69 |   0 | 8.036764e+03 | 8.640000e+03 |   7.51%| unknown
 55.3s|     1 |     0 |108083 |     - |   246M |   0 |2882 |2952 |2929 |   1 |  1 |  69 |   0 | 8.047193e+03 | 8.640000e+03 |   7.37%| unknown
 55.3s|     1 |     0 |108083 |     - |   246M |   0 |2882 |2956 |2928 |   1 |  1 |  73 |   0 | 8.047193e+03 | 8.640000e+03 |   7.37%| unknown
 55.4s|     1 |     0 |108210 |     - |   246M |   0 |2882 |2955 |2929 |   2 |  2 |  73 |   0 | 8.052792e+03 | 8.640000e+03 |   7.29%| unknown
 55.4s|     1 |     0 |108210 |     - |   246M |   0 |2882 |2956 |2927 |   2 |  2 |  74 |   0 | 8.052792e+03 | 8.640000e+03 |   7.29%| unknown
 55.5s|     1 |     0 |108299 |     - |   246M |   0 |2882 |2954 |2928 |   3 |  3 |  74 |   0 | 8.054454e+03 | 8.640000e+03 |   7.27%| unknown
 55.5s|     1 |     0 |108299 |     - |   246M |   0 |2882 |2955 |2926 |   3 |  3 |  75 |   0 | 8.054454e+03 | 8.640000e+03 |   7.27%| unknown
 55.7s|     1 |     0 |108481 |     - |   247M |   0 |2882 |2953 |2927 |   4 |  4 |  75 |   0 | 8.059444e+03 | 8.640000e+03 |   7.20%| unknown
 55.7s|     1 |     0 |108481 |     - |   247M |   0 |2882 |2954 |2924 |   4 |  4 |  76 |   0 | 8.059444e+03 | 8.640000e+03 |   7.20%| unknown
 55.8s|     1 |     0 |108481 |     - |   247M |   0 |2882 |2952 |2924 |   4 |  5 |  76 |   0 | 8.059444e+03 | 8.640000e+03 |   7.20%| unknown
 55.9s|     1 |     0 |108648 |     - |   247M |   0 |2882 |2952 |2925 |   5 |  7 |  76 |   0 | 8.062241e+03 | 8.640000e+03 |   7.17%| unknown
 56.0s|     1 |     0 |108750 |     - |   247M |   0 |2882 |2960 |2926 |   6 |  8 |  84 |   0 | 8.067983e+03 | 8.640000e+03 |   7.09%| unknown
 56.1s|     1 |     0 |108901 |     - |   247M |   0 |2882 |2961 |2927 |   7 |  9 |  85 |   0 | 8.073144e+03 | 8.640000e+03 |   7.02%| unknown
 56.2s|     1 |     0 |109045 |     - |   247M |   0 |2882 |2968 |2928 |   8 | 10 |  92 |   0 | 8.077277e+03 | 8.640000e+03 |   6.97%| unknown
 time | node  | left  |LP iter|LP it/n|mem/heur|mdpt |vars |cons |rows |cuts |sepa|confs|strbr|  dualbound   | primalbound  |  gap   | compl. 
 56.3s|     1 |     0 |109160 |     - |   247M |   0 |2882 |2972 |2929 |   9 | 11 |  96 |   0 | 8.079890e+03 | 8.640000e+03 |   6.93%| unknown
 56.3s|     1 |     0 |109160 |     - |   247M |   0 |2882 |2973 |2925 |   9 | 11 |  97 |   0 | 8.079890e+03 | 8.640000e+03 |   6.93%| unknown
 56.4s|     1 |     0 |109353 |     - |   247M |   0 |2882 |2970 |2926 |  10 | 12 |  97 |   0 | 8.083754e+03 | 8.640000e+03 |   6.88%| unknown
 56.5s|     1 |     0 |109589 |     - |   247M |   0 |2882 |2979 |2927 |  11 | 13 | 106 |   0 | 8.087872e+03 | 8.640000e+03 |   6.83%| unknown
 56.5s|     1 |     0 |109631 |     - |   247M |   0 |2882 |2983 |2928 |  12 | 14 | 110 |   0 | 8.088915e+03 | 8.640000e+03 |   6.81%| unknown
 56.6s|     1 |     0 |109677 |     - |   248M |   0 |2882 |2993 |2929 |  13 | 15 | 120 |   0 | 8.089891e+03 | 8.640000e+03 |   6.80%| unknown
 56.7s|     1 |     0 |109693 |     - |   248M |   0 |2882 |3001 |2930 |  14 | 16 | 128 |   0 | 8.090102e+03 | 8.640000e+03 |   6.80%| unknown
 56.7s|     1 |     0 |109764 |     - |   248M |   0 |2882 |3011 |2931 |  15 | 17 | 138 |   0 | 8.091324e+03 | 8.640000e+03 |   6.78%| unknown
 56.8s|     1 |     0 |109916 |     - |   249M |   0 |2882 |3017 |2932 |  16 | 18 | 144 |   0 | 8.094859e+03 | 8.640000e+03 |   6.73%| unknown
 56.9s|     1 |     0 |110029 |     - |   249M |   0 |2882 |3018 |2933 |  17 | 19 | 145 |   0 | 8.098224e+03 | 8.640000e+03 |   6.69%| unknown
 57.0s|     1 |     0 |110092 |     - |   249M |   0 |2882 |3028 |2934 |  18 | 20 | 155 |   0 | 8.099159e+03 | 8.640000e+03 |   6.68%| unknown
 57.0s|     1 |     0 |110173 |     - |   249M |   0 |2882 |3029 |2935 |  19 | 21 | 156 |   0 | 8.100602e+03 | 8.640000e+03 |   6.66%| unknown
 61.6s|     1 |     2 |110322 |     - |   249M |   0 |2882 |3008 |2935 |  19 | 23 | 159 |  29 | 8.119541e+03 | 8.640000e+03 |   6.41%| unknown

SCIP Status        : problem is solved [optimal solution found]
Solving Time (sec) : 80.49
Solving Nodes      : 7 (total of 8 nodes in 2 runs)
Primal Bound       : +8.64000000000000e+03 (3 solutions)
Dual Bound         : +8.64000000000000e+03
Gap                : 0.00 %
Solve Status: optimal
Solve Time: 80.52 seconds
